100
0   401   401
1   402   401
2   402   402
3   402   402
4   401   401
5   402   401
6   402   402
7   401   402
8   402   401
9   401   402
10   401   401
11   401   401
12   402   401
13   402   401
14   401   402
15   402   401
16   402   401
17   401   402
18   402   401
19   402   401
20   401   402
21   401   402
22   202   201
23   202   202
24   202   202
25   201   202
26   201   202
27   202   201
28   202   202
29   201   202
30   201   201
31   202   202
32   202   201
33   202   201
34   202   202
35   201   201
36   201   201
37   201   201
38   202   202
39   202   202
40   202   201
41   202   201
42   201   202
43   201   202
44   102   101
45   102   102
46   102   102
47   102   101
48   102   102
49   101   101
50   101   101
51   101   102
52   101   101
53   101   101
54   102   101
55   102   101
56   102   101
57   101   102
58   102   101
59   101   101
60   102   101
61   102   102
62   102   102
63   102   102
64   101   101
65   102   102
66   52   52
67   51   52
68   51   52
69   51   52
70   51   51
71   51   52
72   51   51
73   51   52
74   52   51
75   52   51
76   51   52
77   52   52
78   51   52
79   51   51
80   51   52
81   51   51
82   52   52
83   51   52
84   52   51
85   51   51
86   51   52
87   51   51
88   2   1
89   2   1
90   1   2
91   1   2
92   1   2
93   2   2
94   1   2
95   2   2
96   1   1
97   1   2
98   1   2
99   2   1
800
